(set-logic QF_S)
(declare-fun var0 () String)
(declare-fun var1 () String)
(declare-fun var2 () String)
(declare-fun var3 () String)
(declare-fun var4 () String)
(declare-fun var5 () String)
(declare-fun var6 () String)
(declare-fun var7 () String)
(declare-fun var8 () String)
(declare-fun var9 () String)
(declare-fun var10 () String)
(declare-fun var11 () String)
(declare-fun var12 () String)
(declare-fun var13 () String)
(declare-fun var14 () String)
(declare-fun var15 () String)
(declare-fun var16 () String)
(declare-fun var17 () String)
(declare-fun var18 () String)
(declare-fun var19 () String)
(declare-fun var20 () String)
(declare-fun var21 () String)
(declare-fun var22 () String)
(declare-fun var23 () String)
(declare-fun var24 () String)
(declare-fun var25 () String)
(declare-fun var26 () String)
(declare-fun var27 () String)
(declare-fun var28 () String)
(declare-fun var29 () String)
(declare-fun var30 () String)
(declare-fun var31 () String)
(declare-fun var32 () String)
(declare-fun var33 () String)
(declare-fun var34 () String)
(declare-fun var35 () String)
(declare-fun var36 () String)
(declare-fun var37 () String)
(declare-fun var38 () String)
(declare-fun var39 () String)
(declare-fun var40 () String)
(declare-fun var41 () String)
(declare-fun var42 () String)
(declare-fun var43 () String)
(declare-fun var44 () String)
(declare-fun var45 () String)
(declare-fun var46 () String)
(declare-fun var47 () String)
(declare-fun var48 () String)
(declare-fun var49 () String)
(declare-fun var50 () String)
(declare-fun var51 () String)
(declare-fun var52 () String)
(declare-fun var53 () String)
(declare-fun var54 () String)
(declare-fun var55 () String)
(declare-fun var56 () String)
(declare-fun var57 () String)
(declare-fun var58 () String)
(declare-fun var59 () String)
(declare-fun var60 () String)
(assert (= var0 (str.++ var1 var2)))
(assert (= var2 (str.++ var3 var4)))
(assert (= var4 (str.++ var5 var6)))
(assert (= var6 (str.++ var7 var8)))
(assert (= var8 (str.++ var9 var10)))
(assert (= var10 (str.++ var11 var12)))
(assert (= var12 (str.++ var13 var14)))
(assert (= var14 (str.++ var15 var16)))
(assert (= var16 (str.++ var17 var18)))
(assert (= var18 (str.++ var19 var20)))
(assert (= var20 (str.++ var21 var22)))
(assert (= var22 (str.++ var23 var24)))
(assert (= var24 (str.++ var25 var26)))
(assert (= var26 (str.++ var27 var28)))
(assert (= var28 (str.++ var29 var30)))
(assert (= var30 (str.++ var31 var32)))
(assert (= var32 (str.++ var33 var34)))
(assert (= var34 (str.++ var35 var36)))
(assert (= var36 (str.++ var37 var38)))
(assert (= var38 (str.++ var39 var40)))
(assert (= var40 (str.++ var41 var42)))
(assert (= var42 (str.++ var43 var44)))
(assert (= var44 (str.++ var45 var46)))
(assert (= var46 (str.++ var47 var48)))
(assert (= var48 (str.++ var49 var50)))
(assert (= var50 (str.++ var51 var52)))
(assert (= var52 (str.++ var53 var54)))
(assert (= var54 (str.++ var55 var56)))
(assert (= var56 (str.++ var57 var58)))
(assert (= var58 (str.++ var59 var60)))
(assert (= var0 "solution"))
(assert (= "Q" (str.at var10 43)))
(assert (= "-" (str.at var33 731)))
(assert (= "+" (str.at var59 917)))
(assert (= "G" (str.at var29 991)))
(assert (= ">" (str.at var14 293)))
(assert (= "~" (str.at var21 596)))
(assert (= "1" (str.at var8 504)))
(assert (= "A" (str.at var1 682)))
(assert (= "H" (str.at var36 316)))
(assert (= "I" (str.at var36 401)))
(assert (= "P" (str.at var32 616)))
(assert (= "v" (str.at var2 579)))
(assert (= "h" (str.at var52 93)))
(assert (= ";" (str.at var41 961)))
(assert (= "." (str.at var59 261)))
(assert (= "7" (str.at var3 365)))
(assert (= "3" (str.at var40 338)))
(assert (= ":" (str.at var37 149)))
(assert (= "k" (str.at var33 948)))
(assert (= "{" (str.at var20 896)))
(assert (= "u" (str.at var5 583)))
(assert (= "F" (str.at var17 779)))
(assert (= """" (str.at var19 226)))
(assert (= "C" (str.at var59 6)))
(assert (= "n" (str.at var59 737)))
(assert (= "9" (str.at var21 488)))
(assert (= "_" (str.at var48 488)))
(assert (= "%" (str.at var43 640)))
(assert (= "T" (str.at var30 600)))
(assert (= "W" (str.at var16 423)))
(assert (= "7" (str.at var40 720)))
(assert (= ":" (str.at var22 137)))
(assert (= "E" (str.at var28 852)))
(assert (= "[" (str.at var51 577)))
(assert (= "\\" (str.at var7 504)))
(assert (= "b" (str.at var4 772)))
(assert (= "R" (str.at var0 898)))
(assert (= "g" (str.at var47 140)))
(assert (= "e" (str.at var52 992)))
(assert (= "7" (str.at var24 657)))
(assert (= "-" (str.at var35 550)))
(assert (= "j" (str.at var38 818)))
(assert (= ")" (str.at var35 684)))
(assert (= "j" (str.at var49 778)))
(assert (= "!" (str.at var40 354)))
(assert (= "'" (str.at var45 651)))
(assert (= "j" (str.at var46 870)))
(assert (= "Y" (str.at var20 398)))
(assert (= "[" (str.at var56 625)))
(assert (= "," (str.at var6 413)))
(assert (= "W" (str.at var50 163)))
(assert (= "." (str.at var25 164)))
(assert (= "u" (str.at var19 100)))
(assert (= "I" (str.at var1 816)))
(assert (= "[" (str.at var6 534)))
(assert (= "q" (str.at var14 515)))
(assert (= "x" (str.at var24 961)))
(assert (= "%" (str.at var40 38)))
(assert (= "k" (str.at var10 316)))
(assert (= "=" (str.at var7 317)))
(assert (= "'" (str.at var45 207)))
(assert (= "L" (str.at var33 981)))
(assert (= "." (str.at var2 709)))
(assert (= "d" (str.at var56 773)))
(assert (= "f" (str.at var28 796)))
(assert (= ")" (str.at var1 653)))
(assert (= "8" (str.at var44 341)))
(assert (= "[" (str.at var45 569)))
(assert (= "n" (str.at var51 430)))
(assert (= "@" (str.at var54 15)))
(assert (= "1" (str.at var1 551)))
(assert (= "5" (str.at var41 366)))
(assert (= "V" (str.at var47 220)))
(assert (= "Z" (str.at var58 582)))
(assert (= """" (str.at var55 855)))
(assert (= ")" (str.at var26 863)))
(assert (= "[" (str.at var8 719)))
(assert (= "d" (str.at var34 176)))
(assert (= "a" (str.at var15 241)))
(assert (= "{" (str.at var16 692)))
(assert (= "A" (str.at var51 751)))
(assert (= "F" (str.at var0 65)))
(assert (= "s" (str.at var55 469)))
(assert (= "`" (str.at var13 168)))
(assert (= "}" (str.at var42 841)))
(assert (= "b" (str.at var32 6)))
(assert (= "?" (str.at var20 85)))
(assert (= "1" (str.at var12 262)))
(assert (= "J" (str.at var9 319)))
(assert (= "V" (str.at var36 141)))
(assert (= "-" (str.at var53 697)))
(assert (= "\\" (str.at var4 1)))
(assert (= "z" (str.at var5 6)))
(assert (= "m" (str.at var24 532)))
(assert (= "*" (str.at var25 701)))
(assert (= "]" (str.at var56 241)))
(assert (= "f" (str.at var8 546)))
(assert (= "*" (str.at var27 369)))
(assert (= "A" (str.at var4 322)))
(assert (= "C" (str.at var53 927)))
(assert (= "6" (str.at var27 167)))
(assert (= "N" (str.at var43 295)))
(assert (= "-" (str.at var56 53)))
(assert (= "6" (str.at var35 520)))
(assert (= "1" (str.at var38 221)))
(assert (= "G" (str.at var1 822)))
(assert (= "D" (str.at var20 416)))
(assert (= "<" (str.at var52 44)))
(assert (= "\\" (str.at var30 55)))
(assert (= "%" (str.at var47 286)))
(assert (= "U" (str.at var27 894)))
(assert (= "1" (str.at var11 549)))
(assert (= "+" (str.at var9 80)))
(assert (= "$" (str.at var45 975)))
(assert (= "<" (str.at var24 132)))
(assert (= "i" (str.at var8 438)))
(assert (= "!" (str.at var50 728)))
(assert (= "|" (str.at var27 514)))
(assert (= "R" (str.at var53 53)))
(assert (= "1" (str.at var53 431)))
(assert (= "I" (str.at var25 634)))
(assert (= "]" (str.at var13 506)))
(assert (= "6" (str.at var54 768)))
(assert (= "M" (str.at var36 710)))
(assert (= "\\" (str.at var7 90)))
(assert (= "_" (str.at var33 945)))
(assert (= "E" (str.at var50 603)))
(assert (= "7" (str.at var40 57)))
(assert (= "'" (str.at var6 459)))
(assert (= "$" (str.at var0 292)))
(assert (= "p" (str.at var50 558)))
(assert (= "p" (str.at var19 308)))
(assert (= "z" (str.at var34 424)))
(assert (= "<" (str.at var33 854)))
(assert (= "'" (str.at var39 163)))
(assert (= "0" (str.at var0 417)))
(assert (= "(" (str.at var24 301)))
(assert (= "l" (str.at var43 422)))
(assert (= "/" (str.at var11 759)))
(assert (= "M" (str.at var39 362)))
(assert (= "5" (str.at var8 388)))
(assert (= ":" (str.at var45 607)))
(assert (= "{" (str.at var37 546)))
(assert (= "h" (str.at var41 233)))
(assert (= "m" (str.at var16 965)))
(assert (= "Q" (str.at var39 171)))
(assert (= ":" (str.at var44 348)))
(assert (= "q" (str.at var6 193)))
(assert (= "Y" (str.at var23 407)))
(assert (= "@" (str.at var20 491)))
(assert (= "d" (str.at var5 216)))
(assert (= "F" (str.at var16 408)))
(assert (= "?" (str.at var32 991)))
(assert (= "f" (str.at var34 706)))
(assert (= "\\" (str.at var50 80)))
(assert (= "s" (str.at var21 328)))
(assert (= "(" (str.at var14 271)))
(assert (= "H" (str.at var13 229)))
(assert (= "d" (str.at var4 161)))
(assert (= "A" (str.at var45 541)))
(assert (= "s" (str.at var25 535)))
(assert (= "*" (str.at var20 401)))
(assert (= "l" (str.at var23 665)))
(assert (= "1" (str.at var23 856)))
(assert (= "~" (str.at var52 196)))
(assert (= "q" (str.at var18 143)))
(assert (= "Y" (str.at var48 513)))
(assert (= "[" (str.at var32 942)))
(assert (= "r" (str.at var10 376)))
(assert (= "h" (str.at var58 487)))
(assert (= "_" (str.at var50 745)))
(assert (= "L" (str.at var60 100)))
(assert (= ">" (str.at var10 518)))
(assert (= "2" (str.at var38 463)))
(assert (= "x" (str.at var58 803)))
(assert (= "W" (str.at var43 652)))
(assert (= "H" (str.at var10 291)))
(assert (= "f" (str.at var50 743)))
(assert (= "k" (str.at var56 567)))
(assert (= "N" (str.at var37 842)))
(assert (= "w" (str.at var30 814)))
(assert (= "?" (str.at var42 997)))
(assert (= "u" (str.at var18 92)))
(assert (= "J" (str.at var45 793)))
(assert (= "C" (str.at var16 177)))
(assert (= "X" (str.at var58 534)))
(assert (= "+" (str.at var16 416)))
(assert (= "?" (str.at var26 329)))
(assert (= "A" (str.at var23 800)))
(assert (= "9" (str.at var20 884)))
(assert (= "&" (str.at var17 488)))
(assert (= ")" (str.at var28 659)))
(assert (= "O" (str.at var20 919)))
(assert (= "&" (str.at var23 590)))
(assert (= "P" (str.at var16 7)))
(assert (= "g" (str.at var9 23)))
(assert (= "t" (str.at var19 355)))
(assert (= "S" (str.at var57 84)))
(assert (= "4" (str.at var36 171)))
(assert (= "R" (str.at var59 718)))
(assert (= "h" (str.at var0 311)))
(assert (= "l" (str.at var24 522)))
(assert (= "y" (str.at var19 341)))
(assert (= ")" (str.at var36 729)))
(assert (= ":" (str.at var28 269)))
(assert (= "u" (str.at var20 923)))
(assert (= "#" (str.at var13 26)))
(assert (= "L" (str.at var51 257)))
(assert (= "H" (str.at var59 340)))
(assert (= "d" (str.at var19 408)))
(assert (= "n" (str.at var52 965)))
(assert (= "L" (str.at var18 218)))
(assert (= "K" (str.at var42 759)))
(assert (= "f" (str.at var24 452)))
(assert (= "1" (str.at var19 709)))
(assert (= "p" (str.at var18 926)))
(assert (= "M" (str.at var52 252)))
(assert (= "w" (str.at var60 432)))
(assert (= "R" (str.at var39 937)))
(assert (= "i" (str.at var41 236)))
(assert (= "Q" (str.at var54 645)))
(assert (= "f" (str.at var0 893)))
(assert (= "D" (str.at var15 516)))
(assert (= "@" (str.at var8 615)))
(assert (= "P" (str.at var3 550)))
(assert (= "E" (str.at var21 378)))
(assert (= "y" (str.at var57 155)))
(assert (= "8" (str.at var7 207)))
(assert (= "@" (str.at var29 385)))
(assert (= "*" (str.at var45 328)))
(assert (= "J" (str.at var35 894)))
(assert (= "$" (str.at var7 76)))
(assert (= "a" (str.at var0 144)))
(assert (= "Z" (str.at var48 698)))
(assert (= "Z" (str.at var24 192)))
(assert (= "k" (str.at var32 642)))
(assert (= "B" (str.at var11 455)))
(assert (= "2" (str.at var56 819)))
(assert (= ")" (str.at var60 351)))
(assert (= "Q" (str.at var39 83)))
(assert (= "+" (str.at var49 935)))
(assert (= "/" (str.at var47 502)))
(assert (= "9" (str.at var43 206)))
(assert (= "$" (str.at var57 54)))
(assert (= ">" (str.at var50 656)))
(assert (= "h" (str.at var60 492)))
(assert (= "<" (str.at var34 35)))
(assert (= "8" (str.at var0 135)))
(assert (= "A" (str.at var7 113)))
(assert (= "5" (str.at var54 168)))
(assert (= "f" (str.at var7 53)))
(assert (= "m" (str.at var5 679)))
(assert (= """" (str.at var41 487)))
(assert (= "u" (str.at var44 521)))
(assert (= "e" (str.at var20 504)))
(assert (= "U" (str.at var59 74)))
(assert (= "/" (str.at var46 695)))
(assert (= "w" (str.at var55 455)))
(assert (= "Y" (str.at var12 630)))
(assert (= "=" (str.at var48 269)))
(assert (= "!" (str.at var28 306)))
(assert (= "u" (str.at var47 965)))
(assert (= "h" (str.at var29 938)))
(assert (= "1" (str.at var39 315)))
(assert (= "}" (str.at var27 415)))
(assert (= "G" (str.at var8 375)))
(assert (= "y" (str.at var47 56)))
(assert (= "w" (str.at var38 636)))
(assert (= "^" (str.at var52 772)))
(assert (= "^" (str.at var32 206)))
(assert (= "i" (str.at var41 809)))
(assert (= "%" (str.at var60 827)))
(assert (= "s" (str.at var31 870)))
(assert (= "`" (str.at var5 842)))
(assert (= "}" (str.at var50 63)))
(assert (= "W" (str.at var18 714)))
(assert (= "T" (str.at var47 184)))
(assert (= "W" (str.at var33 273)))
(assert (= "P" (str.at var47 368)))
(assert (= "B" (str.at var13 436)))
(assert (= "a" (str.at var49 830)))
(assert (= "L" (str.at var31 736)))
(assert (= "M" (str.at var37 597)))
(assert (= "5" (str.at var36 762)))
(assert (= "T" (str.at var36 990)))
(assert (= ">" (str.at var58 837)))
(assert (= "#" (str.at var0 522)))
(assert (= "{" (str.at var56 861)))
(assert (= "[" (str.at var6 694)))
(assert (= "N" (str.at var10 349)))
(assert (= "B" (str.at var9 885)))
(assert (= "c" (str.at var13 961)))
(assert (= "@" (str.at var60 939)))
(assert (= "~" (str.at var16 720)))
(assert (= "h" (str.at var24 545)))
(assert (= "1" (str.at var13 263)))
(assert (= "V" (str.at var32 451)))
(assert (= ":" (str.at var40 389)))
(assert (= "W" (str.at var29 825)))
(assert (= "|" (str.at var1 235)))
(assert (= "X" (str.at var25 832)))
(assert (= "y" (str.at var14 723)))
(assert (= "z" (str.at var10 372)))
(assert (= "*" (str.at var27 33)))
(assert (= "F" (str.at var38 632)))
(assert (= "," (str.at var49 679)))
(assert (= "g" (str.at var25 99)))
(assert (= "k" (str.at var37 294)))
(assert (= "x" (str.at var39 850)))
(assert (= "7" (str.at var24 422)))
(assert (= "$" (str.at var20 507)))
(assert (= "E" (str.at var18 18)))
(assert (= "7" (str.at var42 990)))
(assert (= "5" (str.at var60 35)))
(assert (= "q" (str.at var49 449)))
(assert (= "R" (str.at var46 104)))
(assert (= "6" (str.at var60 385)))
(assert (= "B" (str.at var59 42)))
(assert (= "q" (str.at var16 180)))
(assert (= "\\" (str.at var46 594)))
(assert (= "N" (str.at var18 715)))
(assert (= "M" (str.at var47 147)))
(assert (= "%" (str.at var49 807)))
(assert (= "," (str.at var2 715)))
(assert (= "X" (str.at var20 832)))
(assert (= "G" (str.at var1 397)))
(assert (= "L" (str.at var48 996)))
(assert (= "_" (str.at var17 762)))
(assert (= "?" (str.at var47 811)))
(assert (= "R" (str.at var12 602)))
(assert (= "X" (str.at var28 925)))
(assert (= "@" (str.at var45 838)))
(assert (= "Q" (str.at var52 66)))
(assert (= "|" (str.at var56 923)))
(assert (= "|" (str.at var41 111)))
(assert (= "9" (str.at var13 476)))
(assert (= "X" (str.at var47 903)))
(assert (= "R" (str.at var14 715)))
(assert (= "H" (str.at var32 288)))
(assert (= "k" (str.at var43 946)))
(assert (= "q" (str.at var14 785)))
(assert (= "s" (str.at var0 784)))
(assert (= "9" (str.at var13 832)))
(assert (= "I" (str.at var35 454)))
(assert (= "R" (str.at var17 363)))
(assert (= "=" (str.at var53 824)))
(assert (= "%" (str.at var45 773)))
(assert (= "O" (str.at var10 522)))
(assert (= "a" (str.at var7 420)))
(assert (= "f" (str.at var39 859)))
(assert (= "." (str.at var34 209)))
(assert (= "]" (str.at var44 674)))
(assert (= "q" (str.at var59 355)))
(assert (= "O" (str.at var11 998)))
(assert (= "V" (str.at var8 148)))
(assert (= "5" (str.at var25 502)))
(assert (= "a" (str.at var52 20)))
(assert (= "j" (str.at var12 664)))
(assert (= "H" (str.at var3 519)))
(assert (= "m" (str.at var23 641)))
(assert (= "?" (str.at var47 703)))
(check-sat)